instances/p2/p2_6_13-4.dzn
Alphabet = {A,C,G,T};
ns = 6;
nc = 11;
neighbours = [| I(A),I(G),I(C),I(A),I(C),I(T),I(G),I(C),I(A),I(G),I(C) | I(A),Null,Null,Null,Null,Null,Null,Null,Null,Null,Null | I(G),I(A),I(A),I(A),I(C),I(T),I(G),I(C),I(C),I(A),I(T) | I(C),I(G),I(C),I(C),Null,Null,Null,Null,Null,Null,Null | I(C),I(G),I(G),I(T),I(C),I(C),Null,Null,Null,Null,Null | I(T),Null,Null,Null,Null,Null,Null,Null,Null,Null,Null |];
